50
1 0 6
2 0 3
2 1 28
3 0 8
3 1 37
3 2 25
4 0 42
4 1 11
4 2 36
4 3 8
5 0 36
5 1 54
5 2 34
5 3 12
5 4 51
6 0 2
6 1 57
6 2 33
6 3 18
6 4 40
6 5 3
7 0 16
7 1 23
7 2 28
7 3 6
7 4 47
7 5 57
7 6 34
8 0 25
8 1 2
8 2 26
8 3 60
8 4 14
8 5 46
8 6 18
8 7 20
9 0 52
9 1 32
9 2 6
9 3 41
9 4 5
9 5 7
9 6 42
9 7 30
9 8 53
10 0 19
10 1 33
10 2 42
10 3 8
10 4 26
10 5 46
10 6 6
10 7 43
10 8 47
10 9 50
11 0 3
11 1 5
11 2 10
11 3 53
11 4 51
11 5 27
11 6 10
11 7 49
11 8 33
11 9 3
11 10 33
12 0 7
12 1 46
12 2 1
12 3 9
12 4 39
12 5 57
12 6 3
12 7 13
12 8 5
12 9 12
12 10 45
12 11 58
13 0 35
13 1 24
13 2 18
13 3 43
13 4 7
13 5 27
13 6 58
13 7 4
13 8 14
13 9 49
13 10 38
13 11 48
13 12 23
14 0 38
14 1 5
14 2 35
14 3 6
14 4 57
14 5 56
14 6 40
14 7 26
14 8 17
14 9 40
14 10 3
14 11 44
14 12 6
14 13 37
15 0 51
15 1 30
15 2 5
15 3 12
15 4 59
15 5 57
15 6 29
15 7 56
15 8 9
15 9 25
15 10 26
15 11 35
15 12 53
15 13 52
15 14 33
16 0 42
16 1 11
16 2 10
16 3 1
16 4 27
16 5 54
16 6 49
16 7 41
16 8 30
16 9 58
16 10 7
16 11 19
16 12 14
16 13 60
16 14 15
16 15 52
17 0 30
17 1 9
17 2 49
17 3 11
17 4 59
17 5 53
17 6 25
17 7 53
17 8 43
17 9 17
17 10 32
17 11 7
17 12 5
17 13 9
17 14 60
17 15 24
17 16 47
18 0 39
18 1 26
18 2 50
18 3 25
18 4 33
18 5 43
18 6 28
18 7 24
18 8 15
18 9 14
18 10 27
18 11 47
18 12 14
18 13 35
18 14 11
18 15 60
18 16 18
18 17 48
19 0 57
19 1 33
19 2 7
19 3 25
19 4 30
19 5 16
19 6 49
19 7 1
19 8 22
19 9 35
19 10 27
19 11 51
19 12 18
19 13 57
19 14 52
19 15 47
19 16 60
19 17 29
19 18 10
20 0 39
20 1 41
20 2 17
20 3 46
20 4 2
20 5 37
20 6 1
20 7 44
20 8 29
20 9 23
20 10 52
20 11 60
20 12 5
20 13 38
20 14 54
20 15 38
20 16 59
20 17 32
20 18 14
20 19 6
21 0 60
21 1 7
21 2 48
21 3 21
21 4 27
21 5 26
21 6 38
21 7 11
21 8 6
21 9 56
21 10 39
21 11 4
21 12 36
21 13 46
21 14 41
21 15 33
21 16 46
21 17 40
21 18 6
21 19 46
21 20 59
22 0 47
22 1 14
22 2 52
22 3 6
22 4 40
22 5 32
22 6 10
22 7 43
22 8 58
22 9 2
22 10 27
22 11 5
22 12 56
22 13 54
22 14 52
22 15 34
22 16 33
22 17 36
22 18 2
22 19 34
22 20 59
22 21 21
23 0 32
23 1 26
23 2 35
23 3 56
23 4 48
23 5 38
23 6 41
23 7 40
23 8 13
23 9 19
23 10 60
23 11 30
23 12 48
23 13 55
23 14 9
23 15 18
23 16 41
23 17 33
23 18 59
23 19 53
23 20 36
23 21 17
23 22 18
24 0 23
24 1 51
24 2 35
24 3 27
24 4 51
24 5 25
24 6 24
24 7 47
24 8 23
24 9 19
24 10 55
24 11 56
24 12 5
24 13 23
24 14 41
24 15 28
24 16 37
24 17 1
24 18 46
24 19 19
24 20 13
24 21 26
24 22 13
24 23 9
25 0 23
25 1 49
25 2 47
25 3 16
25 4 37
25 5 7
25 6 57
25 7 8
25 8 3
25 9 24
25 10 27
25 11 22
25 12 31
25 13 12
25 14 56
25 15 45
25 16 46
25 17 1
25 18 36
25 19 50
25 20 47
25 21 11
25 22 46
25 23 50
25 24 5
26 0 30
26 1 40
26 2 14
26 3 3
26 4 30
26 5 8
26 6 13
26 7 8
26 8 13
26 9 56
26 10 34
26 11 40
26 12 46
26 13 37
26 14 4
26 15 51
26 16 15
26 17 33
26 18 18
26 19 45
26 20 35
26 21 22
26 22 22
26 23 41
26 24 28
26 25 41
27 0 60
27 1 10
27 2 27
27 3 20
27 4 7
27 5 20
27 6 54
27 7 12
27 8 42
27 9 40
27 10 17
27 11 14
27 12 40
27 13 3
27 14 1
27 15 37
27 16 56
27 17 55
27 18 59
27 19 55
27 20 57
27 21 51
27 22 12
27 23 40
27 24 35
27 25 41
27 26 32
28 0 48
28 1 42
28 2 22
28 3 10
28 4 58
28 5 16
28 6 50
28 7 21
28 8 28
28 9 32
28 10 40
28 11 43
28 12 24
28 13 40
28 14 35
28 15 1
28 16 20
28 17 7
28 18 35
28 19 12
28 20 31
28 21 16
28 22 36
28 23 11
28 24 34
28 25 13
28 26 3
28 27 31
29 0 47
29 1 5
29 2 15
29 3 7
29 4 4
29 5 44
29 6 1
29 7 42
29 8 44
29 9 55
29 10 41
29 11 14
29 12 42
29 13 35
29 14 20
29 15 3
29 16 60
29 17 23
29 18 10
29 19 12
29 20 28
29 21 49
29 22 9
29 23 1
29 24 16
29 25 38
29 26 17
29 27 16
29 28 8
30 0 19
30 1 24
30 2 18
30 3 5
30 4 49
30 5 11
30 6 58
30 7 38
30 8 48
30 9 43
30 10 4
30 11 40
30 12 10
30 13 52
30 14 6
30 15 55
30 16 30
30 17 24
30 18 9
30 19 21
30 20 54
30 21 29
30 22 10
30 23 50
30 24 3
30 25 58
30 26 21
30 27 19
30 28 44
30 29 40
31 0 57
31 1 7
31 2 5
31 3 37
31 4 59
31 5 51
31 6 12
31 7 52
31 8 38
31 9 33
31 10 2
31 11 18
31 12 11
31 13 44
31 14 31
31 15 39
31 16 1
31 17 22
31 18 36
31 19 43
31 20 40
31 21 20
31 22 23
31 23 13
31 24 21
31 25 34
31 26 35
31 27 59
31 28 14
31 29 54
31 30 15
32 0 35
32 1 15
32 2 41
32 3 10
32 4 8
32 5 38
32 6 18
32 7 30
32 8 15
32 9 3
32 10 22
32 11 39
32 12 18
32 13 15
32 14 7
32 15 11
32 16 24
32 17 30
32 18 26
32 19 43
32 20 47
32 21 13
32 22 18
32 23 35
32 24 32
32 25 46
32 26 47
32 27 1
32 28 47
32 29 8
32 30 54
32 31 17
33 0 51
33 1 47
33 2 40
33 3 27
33 4 60
33 5 24
33 6 34
33 7 19
33 8 45
33 9 55
33 10 57
33 11 31
33 12 50
33 13 8
33 14 9
33 15 33
33 16 22
33 17 55
33 18 37
33 19 36
33 20 40
33 21 37
33 22 53
33 23 13
33 24 6
33 25 23
33 26 23
33 27 16
33 28 30
33 29 25
33 30 45
33 31 46
33 32 10
34 0 17
34 1 29
34 2 24
34 3 46
34 4 57
34 5 35
34 6 50
34 7 11
34 8 5
34 9 29
34 10 25
34 11 33
34 12 48
34 13 9
34 14 27
34 15 41
34 16 57
34 17 27
34 18 19
34 19 55
34 20 27
34 21 60
34 22 22
34 23 52
34 24 33
34 25 4
34 26 53
34 27 44
34 28 46
34 29 24
34 30 53
34 31 6
34 32 56
34 33 60
35 0 33
35 1 26
35 2 50
35 3 58
35 4 24
35 5 39
35 6 59
35 7 21
35 8 32
35 9 25
35 10 43
35 11 22
35 12 41
35 13 17
35 14 53
35 15 22
35 16 42
35 17 26
35 18 22
35 19 43
35 20 57
35 21 3
35 22 23
35 23 6
35 24 32
35 25 22
35 26 32
35 27 9
35 28 24
35 29 53
35 30 49
35 31 25
35 32 51
35 33 18
35 34 56
36 0 57
36 1 48
36 2 26
36 3 1
36 4 60
36 5 52
36 6 48
36 7 16
36 8 53
36 9 25
36 10 43
36 11 10
36 12 37
36 13 43
36 14 24
36 15 32
36 16 10
36 17 60
36 18 59
36 19 10
36 20 21
36 21 21
36 22 39
36 23 13
36 24 35
36 25 10
36 26 23
36 27 15
36 28 16
36 29 8
36 30 57
36 31 49
36 32 16
36 33 43
36 34 56
36 35 1
37 0 55
37 1 34
37 2 13
37 3 9
37 4 31
37 5 31
37 6 9
37 7 41
37 8 10
37 9 50
37 10 15
37 11 2
37 12 25
37 13 12
37 14 5
37 15 50
37 16 7
37 17 23
37 18 54
37 19 49
37 20 30
37 21 27
37 22 2
37 23 18
37 24 14
37 25 24
37 26 5
37 27 9
37 28 5
37 29 9
37 30 33
37 31 32
37 32 27
37 33 24
37 34 20
37 35 45
37 36 45
38 0 1
38 1 14
38 2 13
38 3 39
38 4 31
38 5 26
38 6 16
38 7 26
38 8 12
38 9 44
38 10 16
38 11 4
38 12 58
38 13 35
38 14 14
38 15 46
38 16 25
38 17 40
38 18 6
38 19 4
38 20 23
38 21 26
38 22 11
38 23 53
38 24 48
38 25 36
38 26 24
38 27 47
38 28 9
38 29 50
38 30 36
38 31 36
38 32 30
38 33 58
38 34 51
38 35 13
38 36 34
38 37 28
39 0 21
39 1 58
39 2 6
39 3 9
39 4 44
39 5 9
39 6 10
39 7 6
39 8 44
39 9 17
39 10 26
39 11 28
39 12 19
39 13 34
39 14 50
39 15 43
39 16 1
39 17 24
39 18 27
39 19 12
39 20 59
39 21 51
39 22 59
39 23 20
39 24 48
39 25 33
39 26 33
39 27 41
39 28 25
39 29 28
39 30 33
39 31 45
39 32 34
39 33 27
39 34 47
39 35 21
39 36 22
39 37 26
39 38 9
40 0 45
40 1 18
40 2 50
40 3 35
40 4 52
40 5 29
40 6 22
40 7 60
40 8 30
40 9 10
40 10 29
40 11 28
40 12 14
40 13 42
40 14 10
40 15 56
40 16 19
40 17 19
40 18 27
40 19 5
40 20 55
40 21 49
40 22 21
40 23 13
40 24 29
40 25 42
40 26 53
40 27 21
40 28 2
40 29 29
40 30 8
40 31 37
40 32 38
40 33 2
40 34 4
40 35 1
40 36 28
40 37 29
40 38 57
40 39 58
41 0 8
41 1 51
41 2 2
41 3 4
41 4 11
41 5 24
41 6 47
41 7 12
41 8 57
41 9 30
41 10 25
41 11 46
41 12 17
41 13 28
41 14 6
41 15 54
41 16 36
41 17 31
41 18 47
41 19 33
41 20 26
41 21 60
41 22 25
41 23 10
41 24 32
41 25 38
41 26 18
41 27 19
41 28 55
41 29 55
41 30 30
41 31 7
41 32 37
41 33 26
41 34 54
41 35 50
41 36 4
41 37 42
41 38 13
41 39 39
41 40 8
42 0 29
42 1 44
42 2 32
42 3 28
42 4 45
42 5 4
42 6 53
42 7 42
42 8 5
42 9 4
42 10 9
42 11 21
42 12 55
42 13 21
42 14 46
42 15 51
42 16 43
42 17 30
42 18 60
42 19 50
42 20 29
42 21 49
42 22 32
42 23 33
42 24 50
42 25 48
42 26 6
42 27 22
42 28 31
42 29 20
42 30 12
42 31 14
42 32 29
42 33 48
42 34 49
42 35 60
42 36 20
42 37 44
42 38 51
42 39 51
42 40 17
42 41 58
43 0 21
43 1 56
43 2 36
43 3 46
43 4 6
43 5 30
43 6 16
43 7 12
43 8 51
43 9 43
43 10 29
43 11 14
43 12 23
43 13 2
43 14 57
43 15 12
43 16 19
43 17 54
43 18 22
43 19 12
43 20 11
43 21 9
43 22 19
43 23 57
43 24 6
43 25 19
43 26 41
43 27 31
43 28 17
43 29 36
43 30 8
43 31 55
43 32 14
43 33 39
43 34 20
43 35 16
43 36 2
43 37 48
43 38 2
43 39 21
43 40 22
43 41 51
43 42 6
44 0 30
44 1 18
44 2 31
44 3 2
44 4 15
44 5 29
44 6 46
44 7 48
44 8 6
44 9 47
44 10 9
44 11 47
44 12 29
44 13 14
44 14 31
44 15 21
44 16 44
44 17 54
44 18 52
44 19 12
44 20 29
44 21 6
44 22 10
44 23 34
44 24 60
44 25 55
44 26 24
44 27 56
44 28 13
44 29 9
44 30 12
44 31 53
44 32 44
44 33 51
44 34 48
44 35 7
44 36 39
44 37 35
44 38 12
44 39 50
44 40 20
44 41 27
44 42 44
44 43 3
45 0 26
45 1 54
45 2 23
45 3 28
45 4 29
45 5 57
45 6 45
45 7 5
45 8 17
45 9 55
45 10 17
45 11 27
45 12 40
45 13 9
45 14 10
45 15 28
45 16 24
45 17 17
45 18 18
45 19 8
45 20 14
45 21 57
45 22 51
45 23 25
45 24 36
45 25 55
45 26 31
45 27 20
45 28 12
45 29 18
45 30 37
45 31 3
45 32 35
45 33 59
45 34 15
45 35 8
45 36 33
45 37 47
45 38 35
45 39 44
45 40 49
45 41 43
45 42 49
45 43 12
45 44 24
46 0 25
46 1 8
46 2 8
46 3 35
46 4 48
46 5 14
46 6 19
46 7 32
46 8 8
46 9 46
46 10 42
46 11 42
46 12 36
46 13 1
46 14 27
46 15 53
46 16 30
46 17 35
46 18 54
46 19 20
46 20 60
46 21 52
46 22 46
46 23 22
46 24 6
46 25 43
46 26 52
46 27 28
46 28 1
46 29 30
46 30 27
46 31 37
46 32 14
46 33 21
46 34 48
46 35 34
46 36 2
46 37 26
46 38 29
46 39 9
46 40 10
46 41 41
46 42 47
46 43 50
46 44 53
46 45 52
47 0 58
47 1 19
47 2 43
47 3 27
47 4 21
47 5 35
47 6 27
47 7 22
47 8 36
47 9 50
47 10 28
47 11 30
47 12 26
47 13 21
47 14 11
47 15 56
47 16 46
47 17 2
47 18 15
47 19 49
47 20 9
47 21 7
47 22 4
47 23 42
47 24 37
47 25 35
47 26 16
47 27 37
47 28 51
47 29 4
47 30 38
47 31 1
47 32 45
47 33 8
47 34 29
47 35 54
47 36 7
47 37 39
47 38 20
47 39 9
47 40 2
47 41 16
47 42 40
47 43 9
47 44 58
47 45 15
47 46 53
48 0 25
48 1 58
48 2 26
48 3 44
48 4 24
48 5 2
48 6 51
48 7 5
48 8 1
48 9 7
48 10 14
48 11 37
48 12 26
48 13 52
48 14 35
48 15 40
48 16 8
48 17 10
48 18 35
48 19 37
48 20 26
48 21 19
48 22 14
48 23 26
48 24 46
48 25 2
48 26 20
48 27 8
48 28 39
48 29 2
48 30 28
48 31 28
48 32 56
48 33 31
48 34 43
48 35 55
48 36 43
48 37 58
48 38 12
48 39 52
48 40 30
48 41 9
48 42 13
48 43 46
48 44 46
48 45 4
48 46 36
48 47 13
49 0 29
49 1 28
49 2 23
49 3 38
49 4 16
49 5 54
49 6 14
49 7 47
49 8 53
49 9 34
49 10 53
49 11 20
49 12 43
49 13 34
49 14 50
49 15 24
49 16 59
49 17 2
49 18 41
49 19 26
49 20 4
49 21 26
49 22 18
49 23 5
49 24 17
49 25 4
49 26 24
49 27 57
49 28 52
49 29 15
49 30 14
49 31 19
49 32 49
49 33 11
49 34 41
49 35 9
49 36 14
49 37 3
49 38 41
49 39 6
49 40 7
49 41 60
49 42 58
49 43 11
49 44 38
49 45 22
49 46 30
49 47 38
49 48 35
